NAME : qa194
COMMENT : 194 locations in Qatar
COMMENT : Derived from National Imagery and Mapping Agency data
TYPE : TSP
ROBOT : 1
DIMENSION : 10
EDGE_WEIGHT_TYPE : EUC_2D
ROBOT_BUDGET_SECTION
1 12000
NODE_COORD_SECTION
1 440.0382 877.4398 13.0473 8
2 763.2055 556.3268 14.5786 20
3 921.7792 588.0627 6.9011 11
4 225.0694 160.1997 6.3686 9
5 583.7803 457.9057 5.9714 14
6 241.6326 691.09 7.3567 14
7 172.4634 404.0839 5.8629 5
8 825.0064 282.9738 6.5215 18
9 589.3269 571.2838 7.5818 20
10 940.4937 833.8357 12.6394 10
EOF
